(declare-datatypes () ((Edge (mk-edge (src String) (dst String))))) ; to have a type edge to manipulate, Edge is from the record (tuple) theory 
(declare-fun delay ((Edge)) Int) ;a function must be provided or later a restriction that the function must return > 0 
(declare-fun bandwidth ((Edge)) Int)  ; a function must be provided or later a restriction that the function must return > 0 
(declare-const edges (Array Int Edge)) ; an array of edges  
(declare-const nodes (Array Int String)) ; an array of nodes 
(declare-fun edges_size () Int) ; a function must be provided or later a restriction that the function must return > 0 
(declare-fun nodes_size () Int) 
(assert (> edges_size 0) ) ; a restriction on the edge size that must be greater than 0 
(assert (> nodes_size 0) ) 
;; end of initial configuration, starts specific graph configs 
(assert (= (store nodes 1 "n1") nodes))
(assert (= (store nodes 2 "n2") nodes))
(assert (= (store nodes 3 "n3") nodes))
(assert (= (store nodes 4 "n4") nodes))
(assert (= (store nodes 5 "n5") nodes))
(assert (= (store nodes 6 "n6") nodes))
(assert (= (store nodes 7 "n7") nodes))
(assert (= (store nodes 8 "n8") nodes))
(assert (= (store nodes 9 "n9") nodes))
(assert (= nodes_size 9)) 
(assert (= (store edges 1 (mk-edge "n1" "n7")) edges)) 
(assert (= 8785008 (bandwidth (select edges 1)) ) )
(assert (= 88 (delay (select edges 1)) ) )
(assert (= (store edges 2 (mk-edge "n1" "n9")) edges)) 
(assert (= 7791687 (bandwidth (select edges 2)) ) )
(assert (= 78 (delay (select edges 2)) ) )
(assert (= (store edges 3 (mk-edge "n2" "n7")) edges)) 
(assert (= 381168 (bandwidth (select edges 3)) ) )
(assert (= 4 (delay (select edges 3)) ) )
(assert (= (store edges 4 (mk-edge "n3" "n4")) edges)) 
(assert (= 3073243 (bandwidth (select edges 4)) ) )
(assert (= 31 (delay (select edges 4)) ) )
(assert (= (store edges 5 (mk-edge "n3" "n5")) edges)) 
(assert (= 3141438 (bandwidth (select edges 5)) ) )
(assert (= 32 (delay (select edges 5)) ) )
(assert (= (store edges 6 (mk-edge "n3" "n6")) edges)) 
(assert (= 1767995 (bandwidth (select edges 6)) ) )
(assert (= 18 (delay (select edges 6)) ) )
(assert (= (store edges 7 (mk-edge "n3" "n7")) edges)) 
(assert (= 2840949 (bandwidth (select edges 7)) ) )
(assert (= 29 (delay (select edges 7)) ) )
(assert (= (store edges 8 (mk-edge "n3" "n8")) edges)) 
(assert (= 4177329 (bandwidth (select edges 8)) ) )
(assert (= 42 (delay (select edges 8)) ) )
(assert (= (store edges 9 (mk-edge "n4" "n3")) edges)) 
(assert (= 5796915 (bandwidth (select edges 9)) ) )
(assert (= 58 (delay (select edges 9)) ) )
(assert (= (store edges 10 (mk-edge "n4" "n5")) edges)) 
(assert (= 18351106 (bandwidth (select edges 10)) ) )
(assert (= 184 (delay (select edges 10)) ) )
(assert (= (store edges 11 (mk-edge "n4" "n6")) edges)) 
(assert (= 7314077 (bandwidth (select edges 11)) ) )
(assert (= 74 (delay (select edges 11)) ) )
(assert (= (store edges 12 (mk-edge "n4" "n7")) edges)) 
(assert (= 13414296 (bandwidth (select edges 12)) ) )
(assert (= 135 (delay (select edges 12)) ) )
(assert (= (store edges 13 (mk-edge "n4" "n8")) edges)) 
(assert (= 15867737 (bandwidth (select edges 13)) ) )
(assert (= 159 (delay (select edges 13)) ) )
(assert (= (store edges 14 (mk-edge "n5" "n3")) edges)) 
(assert (= 2317919 (bandwidth (select edges 14)) ) )
(assert (= 24 (delay (select edges 14)) ) )
(assert (= (store edges 15 (mk-edge "n5" "n4")) edges)) 
(assert (= 18262814 (bandwidth (select edges 15)) ) )
(assert (= 183 (delay (select edges 15)) ) )
(assert (= (store edges 16 (mk-edge "n5" "n6")) edges)) 
(assert (= 898030 (bandwidth (select edges 16)) ) )
(assert (= 9 (delay (select edges 16)) ) )
(assert (= (store edges 17 (mk-edge "n5" "n7")) edges)) 
(assert (= 13614860 (bandwidth (select edges 17)) ) )
(assert (= 137 (delay (select edges 17)) ) )
(assert (= (store edges 18 (mk-edge "n5" "n8")) edges)) 
(assert (= 5357615 (bandwidth (select edges 18)) ) )
(assert (= 54 (delay (select edges 18)) ) )
(assert (= (store edges 19 (mk-edge "n5" "n9")) edges)) 
(assert (= 4298583 (bandwidth (select edges 19)) ) )
(assert (= 43 (delay (select edges 19)) ) )
(assert (= (store edges 20 (mk-edge "n6" "n3")) edges)) 
(assert (= 754281 (bandwidth (select edges 20)) ) )
(assert (= 8 (delay (select edges 20)) ) )
(assert (= (store edges 21 (mk-edge "n6" "n4")) edges)) 
(assert (= 82031 (bandwidth (select edges 21)) ) )
(assert (= 1 (delay (select edges 21)) ) )
(assert (= (store edges 22 (mk-edge "n6" "n5")) edges)) 
(assert (= 705451 (bandwidth (select edges 22)) ) )
(assert (= 8 (delay (select edges 22)) ) )
(assert (= (store edges 23 (mk-edge "n6" "n8")) edges)) 
(assert (= 10312641 (bandwidth (select edges 23)) ) )
(assert (= 104 (delay (select edges 23)) ) )
(assert (= (store edges 24 (mk-edge "n6" "n9")) edges)) 
(assert (= 3983118 (bandwidth (select edges 24)) ) )
(assert (= 40 (delay (select edges 24)) ) )
(assert (= (store edges 25 (mk-edge "n7" "n1")) edges)) 
(assert (= 5695200 (bandwidth (select edges 25)) ) )
(assert (= 57 (delay (select edges 25)) ) )
(assert (= (store edges 26 (mk-edge "n7" "n2")) edges)) 
(assert (= 1858251 (bandwidth (select edges 26)) ) )
(assert (= 19 (delay (select edges 26)) ) )
(assert (= (store edges 27 (mk-edge "n7" "n3")) edges)) 
(assert (= 2622288 (bandwidth (select edges 27)) ) )
(assert (= 27 (delay (select edges 27)) ) )
(assert (= (store edges 28 (mk-edge "n7" "n4")) edges)) 
(assert (= 7882124 (bandwidth (select edges 28)) ) )
(assert (= 79 (delay (select edges 28)) ) )
(assert (= (store edges 29 (mk-edge "n7" "n5")) edges)) 
(assert (= 11392242 (bandwidth (select edges 29)) ) )
(assert (= 114 (delay (select edges 29)) ) )
(assert (= (store edges 30 (mk-edge "n7" "n8")) edges)) 
(assert (= 8935382 (bandwidth (select edges 30)) ) )
(assert (= 90 (delay (select edges 30)) ) )
(assert (= (store edges 31 (mk-edge "n8" "n3")) edges)) 
(assert (= 1981239 (bandwidth (select edges 31)) ) )
(assert (= 20 (delay (select edges 31)) ) )
(assert (= (store edges 32 (mk-edge "n8" "n4")) edges)) 
(assert (= 18882780 (bandwidth (select edges 32)) ) )
(assert (= 189 (delay (select edges 32)) ) )
(assert (= (store edges 33 (mk-edge "n8" "n5")) edges)) 
(assert (= 1562937 (bandwidth (select edges 33)) ) )
(assert (= 16 (delay (select edges 33)) ) )
(assert (= (store edges 34 (mk-edge "n8" "n6")) edges)) 
(assert (= 17215867 (bandwidth (select edges 34)) ) )
(assert (= 173 (delay (select edges 34)) ) )
(assert (= (store edges 35 (mk-edge "n8" "n7")) edges)) 
(assert (= 5451281 (bandwidth (select edges 35)) ) )
(assert (= 55 (delay (select edges 35)) ) )
(assert (= (store edges 36 (mk-edge "n8" "n9")) edges)) 
(assert (= 26998918 (bandwidth (select edges 36)) ) )
(assert (= 270 (delay (select edges 36)) ) )
(assert (= (store edges 37 (mk-edge "n9" "n1")) edges)) 
(assert (= 6817507 (bandwidth (select edges 37)) ) )
(assert (= 69 (delay (select edges 37)) ) )
(assert (= (store edges 38 (mk-edge "n9" "n5")) edges)) 
(assert (= 9846806 (bandwidth (select edges 38)) ) )
(assert (= 99 (delay (select edges 38)) ) )
(assert (= (store edges 39 (mk-edge "n9" "n6")) edges)) 
(assert (= 8796174 (bandwidth (select edges 39)) ) )
(assert (= 88 (delay (select edges 39)) ) )
(assert (= (store edges 40 (mk-edge "n9" "n8")) edges)) 
(assert (= 27268391 (bandwidth (select edges 40)) ) )
(assert (= 273 (delay (select edges 40)) ) )
(assert (= edges_size 40)) 
;; end of graph configuration, propery verification starts
